p cnf 523 1236
a 261 273 188 191 224 227 245 248 463 290 302 314 359 362 366 369 377 380 384 387 392 395 399 402 408 504 414 417 422 425 429 432 7 13 24 30 2 1 40 18 6 12 35 23 29 50 45 60 55 70 65 80 75 85 90 95 105 100 110 115 120 130 125 135 140 145 187 150 176 158 154 171 163 167 181 223 212 202 198 207 217 244 234 239 260 255 272 267 289 284 279 301 296 313 308 320 330 325 338 334 343 348 353 0
d 357 187 223 244 260 272 0
d 218 7 13 0
d 182 7 13 0
d 321 463 2 0
d 358 289 301 313 320 330 0
d 411 2 504 0
d 371 353 24 30 0
d 3 2 0
d 4 1 2 0
d 5 1 2 0
d 8 7 0
d 9 6 7 0
d 10 6 7 0
d 11 1 2 6 7 0
d 14 13 0
d 15 12 13 0
d 16 12 13 0
d 17 1 2 6 7 12 13 0
d 19 6 12 0
d 20 18 6 12 0
d 21 18 6 12 0
d 22 1 2 6 7 12 13 18 0
d 25 24 0
d 26 23 24 0
d 27 23 24 0
d 28 1 2 6 7 12 13 18 23 24 0
d 31 30 0
d 32 29 30 0
d 33 29 30 0
d 34 1 2 6 7 12 13 18 23 24 29 30 0
d 36 23 29 0
d 37 35 23 29 0
d 38 35 23 29 0
d 39 1 2 6 7 12 13 18 23 24 29 30 35 0
d 41 18 35 0
d 42 40 18 35 0
d 43 40 18 35 0
d 44 1 2 6 7 12 13 18 23 24 29 30 35 40 0
d 46 7 12 0
d 47 45 7 12 0
d 48 45 7 12 0
d 49 1 2 6 7 12 13 18 23 24 29 30 35 40 45 0
d 51 45 35 0
d 52 50 45 35 0
d 53 50 45 35 0
d 54 1 2 6 7 12 13 18 23 24 29 30 35 40 45 50 0
d 56 6 13 0
d 57 55 6 13 0
d 58 55 6 13 0
d 59 1 2 6 7 12 13 18 23 24 29 30 35 40 45 50 55 0
d 61 55 35 0
d 62 60 55 35 0
d 63 60 55 35 0
d 64 1 2 6 7 12 13 18 23 24 29 30 35 40 45 50 55 60 0
d 66 7 13 0
d 67 65 7 13 0
d 68 65 7 13 0
d 69 1 2 6 7 12 13 18 23 24 29 30 35 40 45 50 55 60 65 0
d 71 65 35 0
d 72 70 65 35 0
d 73 70 65 35 0
d 74 1 2 6 7 12 13 18 23 24 29 30 35 40 45 50 55 60 65 70 0
d 76 24 29 0
d 77 75 24 29 0
d 78 75 24 29 0
d 79 1 2 6 7 12 13 18 23 24 29 30 35 40 45 50 55 60 65 70 75 0
d 81 18 75 0
d 82 80 18 75 0
d 83 80 18 75 0
d 84 1 2 6 7 12 13 18 23 24 29 30 35 40 45 50 55 60 65 70 75 80 0
d 86 45 75 0
d 87 85 45 75 0
d 88 85 45 75 0
d 89 1 2 6 7 12 13 18 23 24 29 30 35 40 45 50 55 60 65 70 75 80 85 0
d 91 55 75 0
d 92 90 55 75 0
d 93 90 55 75 0
d 94 1 2 6 7 12 13 18 23 24 29 30 35 40 45 50 55 60 65 70 75 80 85 90 0
d 96 65 75 0
d 97 95 65 75 0
d 98 95 65 75 0
d 99 1 2 6 7 12 13 18 23 24 29 30 35 40 45 50 55 60 65 70 75 80 85 90 95 0
d 101 23 30 0
d 102 100 23 30 0
d 103 100 23 30 0
d 104 1 2 6 7 12 13 18 23 24 29 30 35 40 45 50 55 60 65 70 75 80 85 90 95 100 0
d 106 18 100 0
d 107 105 18 100 0
d 108 105 18 100 0
d 109 1 2 6 7 12 13 18 23 24 29 30 35 40 45 50 55 60 65 70 75 80 85 90 95 100 105 0
d 111 45 100 0
d 112 110 45 100 0
d 113 110 45 100 0
d 114 1 2 6 7 12 13 18 23 24 29 30 35 40 45 50 55 60 65 70 75 80 85 90 95 100 105 110 0
d 116 55 100 0
d 117 115 55 100 0
d 118 115 55 100 0
d 119 1 2 6 7 12 13 18 23 24 29 30 35 40 45 50 55 60 65 70 75 80 85 90 95 100 105 110 115 0
d 121 65 100 0
d 122 120 65 100 0
d 123 120 65 100 0
d 124 1 2 6 7 12 13 18 23 24 29 30 35 40 45 50 55 60 65 70 75 80 85 90 95 100 105 110 115 120 0
d 126 24 30 0
d 127 125 24 30 0
d 128 125 24 30 0
d 129 1 2 6 7 12 13 18 23 24 29 30 35 40 45 50 55 60 65 70 75 80 85 90 95 100 105 110 115 120 125 0
d 131 18 125 0
d 132 130 18 125 0
d 133 130 18 125 0
d 134 1 2 6 7 12 13 18 23 24 29 30 35 40 45 50 55 60 65 70 75 80 85 90 95 100 105 110 115 120 125 130 0
d 136 45 125 0
d 137 135 45 125 0
d 138 135 45 125 0
d 139 1 2 6 7 12 13 18 23 24 29 30 35 40 45 50 55 60 65 70 75 80 85 90 95 100 105 110 115 120 125 130 135 0
d 141 55 125 0
d 142 140 55 125 0
d 143 140 55 125 0
d 144 1 2 6 7 12 13 18 23 24 29 30 35 40 45 50 55 60 65 70 75 80 85 90 95 100 105 110 115 120 125 130 135 140 0
d 146 65 125 0
d 147 145 65 125 0
d 148 145 65 125 0
d 149 1 2 6 7 12 13 18 23 24 29 30 35 40 45 50 55 60 65 70 75 80 85 90 95 100 105 110 115 120 125 130 135 140 145 0
d 151 150 2 0
d 152 150 2 0
d 153 1 2 6 7 12 13 18 23 24 29 30 35 40 45 50 55 60 65 70 75 80 85 90 95 100 105 110 115 120 125 130 135 140 145 150 0
d 155 154 7 0
d 156 154 7 0
d 157 1 2 6 7 12 13 18 23 24 29 30 35 40 45 50 55 60 65 70 75 80 85 90 95 100 105 110 115 120 125 130 135 140 145 150 154 0
d 159 154 13 0
d 160 158 154 13 0
d 161 158 154 13 0
d 162 1 2 6 7 12 13 18 23 24 29 30 35 40 45 50 55 60 65 70 75 80 85 90 95 100 105 110 115 120 125 130 135 140 145 150 154 158 0
d 164 163 24 0
d 165 163 24 0
d 166 1 2 6 7 12 13 18 23 24 29 30 35 40 45 50 55 60 65 70 75 80 85 90 95 100 105 110 115 120 125 130 135 140 145 150 154 158 163 0
d 168 167 30 0
d 169 167 30 0
d 170 1 2 6 7 12 13 18 23 24 29 30 35 40 45 50 55 60 65 70 75 80 85 90 95 100 105 110 115 120 125 130 135 140 145 150 154 158 163 167 0
d 172 163 167 0
d 173 171 163 167 0
d 174 171 163 167 0
d 175 1 2 6 7 12 13 18 23 24 29 30 35 40 45 50 55 60 65 70 75 80 85 90 95 100 105 110 115 120 125 130 135 140 145 150 154 158 163 167 171 0
d 177 158 171 0
d 178 176 158 171 0
d 179 176 158 171 0
d 180 1 2 6 7 12 13 18 23 24 29 30 35 40 45 50 55 60 65 70 75 80 85 90 95 100 105 110 115 120 125 130 135 140 145 150 154 158 163 167 171 176 0
d 183 7 13 171 0
d 184 181 7 13 171 0
d 185 181 7 13 171 0
d 186 1 2 6 7 12 13 18 23 24 29 30 35 40 45 50 55 60 65 70 75 80 85 90 95 100 105 110 115 120 125 130 135 140 145 150 154 158 163 167 171 176 181 0
d 189 150 188 0
d 190 150 188 176 0
d 192 150 191 0
d 193 150 191 181 0
d 194 150 188 176 191 181 0
d 195 187 150 188 176 191 181 0
d 196 187 150 188 176 191 181 0
d 197 1 2 6 7 12 13 18 23 24 29 30 35 40 45 50 55 60 65 70 75 80 85 90 95 100 105 110 115 120 125 130 135 140 145 150 154 158 163 167 171 176 181 187 188 191 0
d 199 198 13 0
d 200 198 13 0
d 201 1 2 6 7 12 13 18 23 24 29 30 35 40 45 50 55 60 65 70 75 80 85 90 95 100 105 110 115 120 125 130 135 140 145 150 154 158 163 167 171 176 181 187 188 191 198 0
d 203 154 198 0
d 204 202 154 198 0
d 205 202 154 198 0
d 206 1 2 6 7 12 13 18 23 24 29 30 35 40 45 50 55 60 65 70 75 80 85 90 95 100 105 110 115 120 125 130 135 140 145 150 154 158 163 167 171 176 181 187 188 191 198 202 0
d 208 24 167 0
d 209 207 24 167 0
d 210 207 24 167 0
d 211 1 2 6 7 12 13 18 23 24 29 30 35 40 45 50 55 60 65 70 75 80 85 90 95 100 105 110 115 120 125 130 135 140 145 150 154 158 163 167 171 176 181 187 188 191 198 202 207 0
d 213 202 207 0
d 214 212 202 207 0
d 215 212 202 207 0
d 216 1 2 6 7 12 13 18 23 24 29 30 35 40 45 50 55 60 65 70 75 80 85 90 95 100 105 110 115 120 125 130 135 140 145 150 154 158 163 167 171 176 181 187 188 191 198 202 207 212 0
d 219 7 13 207 0
d 220 217 7 13 207 0
d 221 217 7 13 207 0
d 222 1 2 6 7 12 13 18 23 24 29 30 35 40 45 50 55 60 65 70 75 80 85 90 95 100 105 110 115 120 125 130 135 140 145 150 154 158 163 167 171 176 181 187 188 191 198 202 207 212 217 0
d 225 150 224 0
d 226 150 224 212 0
d 228 150 227 0
d 229 150 227 217 0
d 230 150 224 212 227 217 0
d 231 223 150 224 212 227 217 0
d 232 223 150 224 212 227 217 0
d 233 1 2 6 7 12 13 18 23 24 29 30 35 40 45 50 55 60 65 70 75 80 85 90 95 100 105 110 115 120 125 130 135 140 145 150 154 158 163 167 171 176 181 187 188 191 198 202 207 212 217 223 224 227 0
d 235 158 207 0
d 236 234 158 207 0
d 237 234 158 207 0
d 238 1 2 6 7 12 13 18 23 24 29 30 35 40 45 50 55 60 65 70 75 80 85 90 95 100 105 110 115 120 125 130 135 140 145 150 154 158 163 167 171 176 181 187 188 191 198 202 207 212 217 223 224 227 234 0
d 240 7 13 207 0
d 241 239 7 13 207 0
d 242 239 7 13 207 0
d 243 1 2 6 7 12 13 18 23 24 29 30 35 40 45 50 55 60 65 70 75 80 85 90 95 100 105 110 115 120 125 130 135 140 145 150 154 158 163 167 171 176 181 187 188 191 198 202 207 212 217 223 224 227 234 239 0
d 246 150 245 0
d 247 150 245 234 0
d 249 150 248 0
d 250 150 248 239 0
d 251 150 245 234 248 239 0
d 252 244 150 245 234 248 239 0
d 253 244 150 245 234 248 239 0
d 254 1 2 6 7 12 13 18 23 24 29 30 35 40 45 50 55 60 65 70 75 80 85 90 95 100 105 110 115 120 125 130 135 140 145 150 154 158 163 167 171 176 181 187 188 191 198 202 207 212 217 223 224 227 234 239 244 245 248 0
d 256 202 171 0
d 257 255 202 171 0
d 258 255 202 171 0
d 259 1 2 6 7 12 13 18 23 24 29 30 35 40 45 50 55 60 65 70 75 80 85 90 95 100 105 110 115 120 125 130 135 140 145 150 154 158 163 167 171 176 181 187 188 191 198 202 207 212 217 223 224 227 234 239 244 245 248 255 0
d 262 150 261 0
d 263 150 261 255 0
d 264 260 150 261 255 0
d 265 260 150 261 255 0
d 266 1 2 6 7 12 13 18 23 24 29 30 35 40 45 50 55 60 65 70 75 80 85 90 95 100 105 110 115 120 125 130 135 140 145 150 154 158 163 167 171 176 181 187 188 191 198 202 207 212 217 223 224 227 234 239 244 245 248 255 260 261 0
d 268 7 13 171 0
d 269 267 7 13 171 0
d 270 267 7 13 171 0
d 271 1 2 6 7 12 13 18 23 24 29 30 35 40 45 50 55 60 65 70 75 80 85 90 95 100 105 110 115 120 125 130 135 140 145 150 154 158 163 167 171 176 181 187 188 191 198 202 207 212 217 223 224 227 234 239 244 245 248 255 260 261 267 0
d 274 150 273 0
d 275 150 273 267 0
d 276 272 150 273 267 0
d 277 272 150 273 267 0
d 278 1 2 6 7 12 13 18 23 24 29 30 35 40 45 50 55 60 65 70 75 80 85 90 95 100 105 110 115 120 125 130 135 140 145 150 154 158 163 167 171 176 181 187 188 191 198 202 207 212 217 223 224 227 234 239 244 245 248 255 260 261 267 272 273 0
d 280 163 30 0
d 281 279 163 30 0
d 282 279 163 30 0
d 283 1 2 6 7 12 13 18 23 24 29 30 35 40 45 50 55 60 65 70 75 80 85 90 95 100 105 110 115 120 125 130 135 140 145 150 154 158 163 167 171 176 181 187 188 191 198 202 207 212 217 223 224 227 234 239 244 245 248 255 260 261 267 272 273 279 0
d 285 7 13 279 0
d 286 284 7 13 279 0
d 287 284 7 13 279 0
d 288 1 2 6 7 12 13 18 23 24 29 30 35 40 45 50 55 60 65 70 75 80 85 90 95 100 105 110 115 120 125 130 135 140 145 150 154 158 163 167 171 176 181 187 188 191 198 202 207 212 217 223 224 227 234 239 244 245 248 255 260 261 267 272 273 279 284 0
d 291 150 290 0
d 292 150 290 284 0
d 293 289 150 290 284 0
d 294 289 150 290 284 0
d 295 1 2 6 7 12 13 18 23 24 29 30 35 40 45 50 55 60 65 70 75 80 85 90 95 100 105 110 115 120 125 130 135 140 145 150 154 158 163 167 171 176 181 187 188 191 198 202 207 212 217 223 224 227 234 239 244 245 248 255 260 261 267 272 273 279 284 289 290 0
d 297 158 279 0
d 298 296 158 279 0
d 299 296 158 279 0
d 300 1 2 6 7 12 13 18 23 24 29 30 35 40 45 50 55 60 65 70 75 80 85 90 95 100 105 110 115 120 125 130 135 140 145 150 154 158 163 167 171 176 181 187 188 191 198 202 207 212 217 223 224 227 234 239 244 245 248 255 260 261 267 272 273 279 284 289 290 296 0
d 303 150 302 0
d 304 150 302 296 0
d 305 301 150 302 296 0
d 306 301 150 302 296 0
d 307 1 2 6 7 12 13 18 23 24 29 30 35 40 45 50 55 60 65 70 75 80 85 90 95 100 105 110 115 120 125 130 135 140 145 150 154 158 163 167 171 176 181 187 188 191 198 202 207 212 217 223 224 227 234 239 244 245 248 255 260 261 267 272 273 279 284 289 290 296 301 302 0
d 309 7 13 279 0
d 310 308 7 13 279 0
d 311 308 7 13 279 0
d 312 1 2 6 7 12 13 18 23 24 29 30 35 40 45 50 55 60 65 70 75 80 85 90 95 100 105 110 115 120 125 130 135 140 145 150 154 158 163 167 171 176 181 187 188 191 198 202 207 212 217 223 224 227 234 239 244 245 248 255 260 261 267 272 273 279 284 289 290 296 301 302 308 0
d 315 150 314 0
d 316 150 314 308 0
d 317 313 150 314 308 0
d 318 313 150 314 308 0
d 319 1 2 6 7 12 13 18 23 24 29 30 35 40 45 50 55 60 65 70 75 80 85 90 95 100 105 110 115 120 125 130 135 140 145 150 154 158 163 167 171 176 181 187 188 191 198 202 207 212 217 223 224 227 234 239 244 245 248 255 260 261 267 272 273 279 284 289 290 296 301 302 308 313 314 0
d 322 320 463 2 0
d 323 320 463 2 0
d 324 1 2 6 7 12 13 18 23 24 29 30 35 40 45 50 55 60 65 70 75 80 85 90 95 100 105 110 115 120 125 130 135 140 145 150 154 158 163 167 171 176 181 187 188 191 198 202 207 212 217 223 224 227 234 239 244 245 248 255 260 261 267 272 273 279 284 289 290 296 301 302 308 313 314 320 463 0
d 326 202 279 0
d 327 325 202 279 0
d 328 325 202 279 0
d 329 1 2 6 7 12 13 18 23 24 29 30 35 40 45 50 55 60 65 70 75 80 85 90 95 100 105 110 115 120 125 130 135 140 145 150 154 158 163 167 171 176 181 187 188 191 198 202 207 212 217 223 224 227 234 239 244 245 248 255 260 261 267 272 273 279 284 289 290 296 301 302 308 313 314 320 463 325 0
d 331 330 325 0
d 332 330 325 0
d 333 1 2 6 7 12 13 18 23 24 29 30 35 40 45 50 55 60 65 70 75 80 85 90 95 100 105 110 115 120 125 130 135 140 145 150 154 158 163 167 171 176 181 187 188 191 198 202 207 212 217 223 224 227 234 239 244 245 248 255 260 261 267 272 273 279 284 289 290 296 301 302 308 313 314 320 463 325 330 0
d 335 334 24 30 0
d 336 334 24 30 0
d 337 1 2 6 7 12 13 18 23 24 29 30 35 40 45 50 55 60 65 70 75 80 85 90 95 100 105 110 115 120 125 130 135 140 145 150 154 158 163 167 171 176 181 187 188 191 198 202 207 212 217 223 224 227 234 239 244 245 248 255 260 261 267 272 273 279 284 289 290 296 301 302 308 313 314 320 463 325 330 334 0
d 339 202 334 0
d 340 338 202 334 0
d 341 338 202 334 0
d 342 1 2 6 7 12 13 18 23 24 29 30 35 40 45 50 55 60 65 70 75 80 85 90 95 100 105 110 115 120 125 130 135 140 145 150 154 158 163 167 171 176 181 187 188 191 198 202 207 212 217 223 224 227 234 239 244 245 248 255 260 261 267 272 273 279 284 289 290 296 301 302 308 313 314 320 463 325 330 334 338 0
d 344 7 13 334 0
d 345 343 7 13 334 0
d 346 343 7 13 334 0
d 347 1 2 6 7 12 13 18 23 24 29 30 35 40 45 50 55 60 65 70 75 80 85 90 95 100 105 110 115 120 125 130 135 140 145 150 154 158 163 167 171 176 181 187 188 191 198 202 207 212 217 223 224 227 234 239 244 245 248 255 260 261 267 272 273 279 284 289 290 296 301 302 308 313 314 320 463 325 330 334 338 343 0
d 349 158 334 0
d 350 348 158 334 0
d 351 348 158 334 0
d 352 1 2 6 7 12 13 18 23 24 29 30 35 40 45 50 55 60 65 70 75 80 85 90 95 100 105 110 115 120 125 130 135 140 145 150 154 158 163 167 171 176 181 187 188 191 198 202 207 212 217 223 224 227 234 239 244 245 248 255 260 261 267 272 273 279 284 289 290 296 301 302 308 313 314 320 463 325 330 334 338 343 348 0
d 354 353 7 13 0
d 355 353 7 13 0
d 356 1 2 6 7 12 13 18 23 24 29 30 35 40 45 50 55 60 65 70 75 80 85 90 95 100 105 110 115 120 125 130 135 140 145 150 154 158 163 167 171 176 181 187 188 191 198 202 207 212 217 223 224 227 234 239 244 245 248 255 260 261 267 272 273 279 284 289 290 296 301 302 308 313 314 320 463 325 330 334 338 343 348 353 0
d 360 150 359 0
d 361 150 359 338 0
d 363 150 362 0
d 364 150 362 343 0
d 365 150 359 338 362 343 0
d 367 150 366 0
d 368 150 366 348 0
d 370 150 369 0
d 372 150 369 353 24 30 0
d 373 150 366 348 369 353 24 30 0
d 374 150 359 338 362 343 366 348 369 353 24 30 0
d 375 289 301 313 320 330 150 359 338 362 343 366 348 369 353 24 30 0
d 376 187 223 244 260 272 289 301 313 320 330 150 359 338 362 343 366 348 369 353 24 30 0
d 378 2 377 0
d 379 2 377 255 0
d 381 2 380 0
d 382 2 380 267 0
d 383 2 377 255 380 267 0
d 385 2 384 0
d 386 2 384 176 0
d 388 2 387 0
d 389 2 387 181 0
d 390 2 384 176 387 181 0
d 391 2 377 255 380 267 384 176 387 181 0
d 393 2 392 0
d 394 2 392 212 0
d 396 2 395 0
d 397 2 395 217 0
d 398 2 392 212 395 217 0
d 400 2 399 0
d 401 2 399 234 0
d 403 2 402 0
d 404 2 402 239 0
d 405 2 399 234 402 239 0
d 406 2 392 212 395 217 399 234 402 239 0
d 407 2 377 255 380 267 384 176 387 181 392 212 395 217 399 234 402 239 0
d 409 2 408 0
d 410 2 408 325 0
d 412 2 504 284 0
d 413 2 408 325 504 284 0
d 415 2 414 0
d 416 2 414 296 0
d 418 2 417 0
d 419 2 417 308 0
d 420 2 414 296 417 308 0
d 421 2 408 325 504 284 414 296 417 308 0
d 423 2 422 0
d 424 2 422 338 0
d 426 2 425 0
d 427 2 425 343 0
d 428 2 422 338 425 343 0
d 430 2 429 0
d 431 2 429 348 0
d 433 2 432 0
d 434 2 432 353 24 30 0
d 435 2 429 348 432 353 24 30 0
d 436 2 422 338 425 343 429 348 432 353 24 30 0
d 437 2 408 325 504 284 414 296 417 308 422 338 425 343 429 348 432 353 24 30 0
d 438 2 377 255 380 267 384 176 387 181 392 212 395 217 399 234 402 239 408 325 504 284 414 296 417 308 422 338 425 343 429 348 432 353 24 30 0
d 439 187 223 244 260 272 289 301 313 320 330 150 359 338 362 343 366 348 369 353 24 30 2 377 255 380 267 384 176 387 181 392 212 395 217 399 234 402 239 408 325 504 284 414 296 417 308 422 425 429 432 0
d 440 1 261 0
d 441 1 261 40 0
d 442 1 273 0
d 443 1 273 50 0
d 444 1 261 40 273 50 0
d 445 1 188 0
d 446 1 188 60 0
d 447 1 191 0
d 448 1 191 70 0
d 449 1 188 60 191 70 0
d 450 1 261 40 273 50 188 60 191 70 0
d 451 1 224 0
d 452 1 224 80 0
d 453 1 227 0
d 454 1 227 85 0
d 455 1 224 80 227 85 0
d 456 1 245 0
d 457 1 245 90 0
d 458 1 248 0
d 459 1 248 95 0
d 460 1 245 90 248 95 0
d 461 1 224 80 227 85 245 90 248 95 0
d 462 1 261 40 273 50 188 60 191 70 224 80 227 85 245 90 248 95 0
d 464 1 463 0
d 465 1 463 105 0
d 466 1 290 0
d 467 1 290 110 0
d 468 1 463 105 290 110 0
d 469 1 302 0
d 470 1 302 115 0
d 471 1 314 0
d 472 1 314 120 0
d 473 1 302 115 314 120 0
d 474 1 463 105 290 110 302 115 314 120 0
d 475 1 359 0
d 476 1 359 130 0
d 477 1 362 0
d 478 1 362 135 0
d 479 1 359 130 362 135 0
d 480 1 366 0
d 481 1 366 140 0
d 482 1 369 0
d 483 1 369 145 0
d 484 1 366 140 369 145 0
d 485 1 359 130 362 135 366 140 369 145 0
d 486 1 463 105 290 110 302 115 314 120 359 130 362 135 366 140 369 145 0
d 487 1 261 40 273 50 188 60 191 70 224 80 227 85 245 90 248 95 463 105 290 110 302 115 314 120 359 130 362 135 366 140 369 145 0
d 488 2 377 40 0
d 489 2 380 50 0
d 490 2 377 40 380 50 0
d 491 2 384 60 0
d 492 2 387 70 0
d 493 2 384 60 387 70 0
d 494 2 377 40 380 50 384 60 387 70 0
d 495 2 392 80 0
d 496 2 395 85 0
d 497 2 392 80 395 85 0
d 498 2 399 90 0
d 499 2 402 95 0
d 500 2 399 90 402 95 0
d 501 2 392 80 395 85 399 90 402 95 0
d 502 2 377 40 380 50 384 60 387 70 392 80 395 85 399 90 402 95 0
d 503 2 408 105 0
d 505 2 504 0
d 506 2 504 110 0
d 507 2 408 105 504 110 0
d 508 2 414 115 0
d 509 2 417 120 0
d 510 2 414 115 417 120 0
d 511 2 408 105 504 110 414 115 417 120 0
d 512 2 422 130 0
d 513 2 425 135 0
d 514 2 422 130 425 135 0
d 515 2 429 140 0
d 516 2 432 145 0
d 517 2 429 140 432 145 0
d 518 2 422 130 425 135 429 140 432 145 0
d 519 2 408 105 504 110 414 115 417 120 422 130 425 135 429 140 432 145 0
d 520 2 377 40 380 50 384 60 387 70 392 80 395 85 399 90 402 95 408 105 504 110 414 115 417 120 422 130 425 135 429 140 432 145 0
d 521 1 261 40 273 50 188 60 191 70 224 80 227 85 245 90 248 95 463 105 290 110 302 115 314 120 359 130 362 135 366 140 369 145 2 377 380 384 387 392 395 399 402 408 504 414 417 422 425 429 432 0
d 522 187 223 244 260 272 289 301 313 320 330 150 359 338 362 343 366 348 369 353 24 30 2 377 255 380 267 384 176 387 181 392 212 395 217 399 234 402 239 408 325 504 284 414 296 417 308 422 425 429 432 1 261 40 273 50 188 60 191 70 224 80 227 85 245 90 248 95 463 105 290 110 302 115 314 120 130 135 140 145 0
d 523 1 2 6 7 12 13 18 23 24 29 30 35 40 45 50 55 60 65 70 75 80 85 90 95 100 105 110 115 120 125 130 135 140 145 150 154 158 163 167 171 176 181 187 188 191 198 202 207 212 217 223 224 227 234 239 244 245 248 255 260 261 267 272 273 279 284 289 290 296 301 302 308 313 314 320 463 325 330 334 338 343 348 353 359 362 366 369 377 380 384 387 392 395 399 402 408 504 414 417 422 425 429 432 0
3 2 0
-3 -2 0
4 -1 -3 0
4 1 3 0
-4 -1 3 0
-4 1 -3 0
5 4 0
-5 -4 0
8 7 0
-8 -7 0
9 -6 -8 0
9 6 8 0
-9 -6 8 0
-9 6 -8 0
10 9 0
-10 -9 0
11 -5 0
11 -10 0
-11 5 10 0
14 13 0
-14 -13 0
15 -12 -14 0
15 12 14 0
-15 -12 14 0
-15 12 -14 0
16 15 0
-16 -15 0
17 -11 0
17 -16 0
-17 11 16 0
-19 6 0
-19 12 0
19 -6 -12 0
20 -18 -19 0
20 18 19 0
-20 -18 19 0
-20 18 -19 0
21 20 0
-21 -20 0
22 -17 0
22 -21 0
-22 17 21 0
25 24 0
-25 -24 0
26 -23 -25 0
26 23 25 0
-26 -23 25 0
-26 23 -25 0
27 26 0
-27 -26 0
28 -22 0
28 -27 0
-28 22 27 0
31 30 0
-31 -30 0
32 -29 -31 0
32 29 31 0
-32 -29 31 0
-32 29 -31 0
33 32 0
-33 -32 0
34 -28 0
34 -33 0
-34 28 33 0
-36 23 0
-36 29 0
36 -23 -29 0
37 -35 -36 0
37 35 36 0
-37 -35 36 0
-37 35 -36 0
38 37 0
-38 -37 0
39 -34 0
39 -38 0
-39 34 38 0
-41 18 0
-41 35 0
41 -18 -35 0
42 -40 -41 0
42 40 41 0
-42 -40 41 0
-42 40 -41 0
43 42 0
-43 -42 0
44 -39 0
44 -43 0
-44 39 43 0
-46 7 0
-46 12 0
46 -7 -12 0
47 -45 -46 0
47 45 46 0
-47 -45 46 0
-47 45 -46 0
48 47 0
-48 -47 0
49 -44 0
49 -48 0
-49 44 48 0
-51 45 0
-51 35 0
51 -45 -35 0
52 -50 -51 0
52 50 51 0
-52 -50 51 0
-52 50 -51 0
53 52 0
-53 -52 0
54 -49 0
54 -53 0
-54 49 53 0
-56 6 0
-56 13 0
56 -6 -13 0
57 -55 -56 0
57 55 56 0
-57 -55 56 0
-57 55 -56 0
58 57 0
-58 -57 0
59 -54 0
59 -58 0
-59 54 58 0
-61 55 0
-61 35 0
61 -55 -35 0
62 -60 -61 0
62 60 61 0
-62 -60 61 0
-62 60 -61 0
63 62 0
-63 -62 0
64 -59 0
64 -63 0
-64 59 63 0
-66 7 0
-66 13 0
66 -7 -13 0
67 -65 -66 0
67 65 66 0
-67 -65 66 0
-67 65 -66 0
68 67 0
-68 -67 0
69 -64 0
69 -68 0
-69 64 68 0
-71 65 0
-71 35 0
71 -65 -35 0
72 -70 -71 0
72 70 71 0
-72 -70 71 0
-72 70 -71 0
73 72 0
-73 -72 0
74 -69 0
74 -73 0
-74 69 73 0
-76 24 0
-76 29 0
76 -24 -29 0
77 -75 -76 0
77 75 76 0
-77 -75 76 0
-77 75 -76 0
78 77 0
-78 -77 0
79 -74 0
79 -78 0
-79 74 78 0
-81 18 0
-81 75 0
81 -18 -75 0
82 -80 -81 0
82 80 81 0
-82 -80 81 0
-82 80 -81 0
83 82 0
-83 -82 0
84 -79 0
84 -83 0
-84 79 83 0
-86 45 0
-86 75 0
86 -45 -75 0
87 -85 -86 0
87 85 86 0
-87 -85 86 0
-87 85 -86 0
88 87 0
-88 -87 0
89 -84 0
89 -88 0
-89 84 88 0
-91 55 0
-91 75 0
91 -55 -75 0
92 -90 -91 0
92 90 91 0
-92 -90 91 0
-92 90 -91 0
93 92 0
-93 -92 0
94 -89 0
94 -93 0
-94 89 93 0
-96 65 0
-96 75 0
96 -65 -75 0
97 -95 -96 0
97 95 96 0
-97 -95 96 0
-97 95 -96 0
98 97 0
-98 -97 0
99 -94 0
99 -98 0
-99 94 98 0
-101 23 0
-101 30 0
101 -23 -30 0
102 -100 -101 0
102 100 101 0
-102 -100 101 0
-102 100 -101 0
103 102 0
-103 -102 0
104 -99 0
104 -103 0
-104 99 103 0
-106 18 0
-106 100 0
106 -18 -100 0
107 -105 -106 0
107 105 106 0
-107 -105 106 0
-107 105 -106 0
108 107 0
-108 -107 0
109 -104 0
109 -108 0
-109 104 108 0
-111 45 0
-111 100 0
111 -45 -100 0
112 -110 -111 0
112 110 111 0
-112 -110 111 0
-112 110 -111 0
113 112 0
-113 -112 0
114 -109 0
114 -113 0
-114 109 113 0
-116 55 0
-116 100 0
116 -55 -100 0
117 -115 -116 0
117 115 116 0
-117 -115 116 0
-117 115 -116 0
118 117 0
-118 -117 0
119 -114 0
119 -118 0
-119 114 118 0
-121 65 0
-121 100 0
121 -65 -100 0
122 -120 -121 0
122 120 121 0
-122 -120 121 0
-122 120 -121 0
123 122 0
-123 -122 0
124 -119 0
124 -123 0
-124 119 123 0
-126 24 0
-126 30 0
126 -24 -30 0
127 -125 -126 0
127 125 126 0
-127 -125 126 0
-127 125 -126 0
128 127 0
-128 -127 0
129 -124 0
129 -128 0
-129 124 128 0
-131 18 0
-131 125 0
131 -18 -125 0
132 -130 -131 0
132 130 131 0
-132 -130 131 0
-132 130 -131 0
133 132 0
-133 -132 0
134 -129 0
134 -133 0
-134 129 133 0
-136 45 0
-136 125 0
136 -45 -125 0
137 -135 -136 0
137 135 136 0
-137 -135 136 0
-137 135 -136 0
138 137 0
-138 -137 0
139 -134 0
139 -138 0
-139 134 138 0
-141 55 0
-141 125 0
141 -55 -125 0
142 -140 -141 0
142 140 141 0
-142 -140 141 0
-142 140 -141 0
143 142 0
-143 -142 0
144 -139 0
144 -143 0
-144 139 143 0
-146 65 0
-146 125 0
146 -65 -125 0
147 -145 -146 0
147 145 146 0
-147 -145 146 0
-147 145 -146 0
148 147 0
-148 -147 0
149 -144 0
149 -148 0
-149 144 148 0
151 -150 -3 0
151 150 3 0
-151 -150 3 0
-151 150 -3 0
152 151 0
-152 -151 0
153 -149 0
153 -152 0
-153 149 152 0
155 -154 -8 0
155 154 8 0
-155 -154 8 0
-155 154 -8 0
156 155 0
-156 -155 0
157 -153 0
157 -156 0
-157 153 156 0
-159 154 0
-159 13 0
159 -154 -13 0
160 -158 -159 0
160 158 159 0
-160 -158 159 0
-160 158 -159 0
161 160 0
-161 -160 0
162 -157 0
162 -161 0
-162 157 161 0
164 -163 -25 0
164 163 25 0
-164 -163 25 0
-164 163 -25 0
165 164 0
-165 -164 0
166 -162 0
166 -165 0
-166 162 165 0
168 -167 -31 0
168 167 31 0
-168 -167 31 0
-168 167 -31 0
169 168 0
-169 -168 0
170 -166 0
170 -169 0
-170 166 169 0
-172 163 0
-172 167 0
172 -163 -167 0
173 -171 -172 0
173 171 172 0
-173 -171 172 0
-173 171 -172 0
174 173 0
-174 -173 0
175 -170 0
175 -174 0
-175 170 174 0
-177 158 0
-177 171 0
177 -158 -171 0
178 -176 -177 0
178 176 177 0
-178 -176 177 0
-178 176 -177 0
179 178 0
-179 -178 0
180 -175 0
180 -179 0
-180 175 179 0
-183 182 0
-183 171 0
183 -182 -171 0
184 -181 -183 0
184 181 183 0
-184 -181 183 0
-184 181 -183 0
185 184 0
-185 -184 0
186 -180 0
186 -185 0
-186 180 185 0
-189 150 0
-189 188 0
189 -150 -188 0
-190 189 0
-190 176 0
190 -189 -176 0
-192 150 0
-192 191 0
192 -150 -191 0
-193 192 0
-193 181 0
193 -192 -181 0
194 -190 0
194 -193 0
-194 190 193 0
195 -187 -194 0
195 187 194 0
-195 -187 194 0
-195 187 -194 0
196 195 0
-196 -195 0
197 -186 0
197 -196 0
-197 186 196 0
199 -198 -14 0
199 198 14 0
-199 -198 14 0
-199 198 -14 0
200 199 0
-200 -199 0
201 -197 0
201 -200 0
-201 197 200 0
-203 154 0
-203 198 0
203 -154 -198 0
204 -202 -203 0
204 202 203 0
-204 -202 203 0
-204 202 -203 0
205 204 0
-205 -204 0
206 -201 0
206 -205 0
-206 201 205 0
-208 24 0
-208 167 0
208 -24 -167 0
209 -207 -208 0
209 207 208 0
-209 -207 208 0
-209 207 -208 0
210 209 0
-210 -209 0
211 -206 0
211 -210 0
-211 206 210 0
-213 202 0
-213 207 0
213 -202 -207 0
214 -212 -213 0
214 212 213 0
-214 -212 213 0
-214 212 -213 0
215 214 0
-215 -214 0
216 -211 0
216 -215 0
-216 211 215 0
-219 218 0
-219 207 0
219 -218 -207 0
220 -217 -219 0
220 217 219 0
-220 -217 219 0
-220 217 -219 0
221 220 0
-221 -220 0
222 -216 0
222 -221 0
-222 216 221 0
-225 150 0
-225 224 0
225 -150 -224 0
-226 225 0
-226 212 0
226 -225 -212 0
-228 150 0
-228 227 0
228 -150 -227 0
-229 228 0
-229 217 0
229 -228 -217 0
230 -226 0
230 -229 0
-230 226 229 0
231 -223 -230 0
231 223 230 0
-231 -223 230 0
-231 223 -230 0
232 231 0
-232 -231 0
233 -222 0
233 -232 0
-233 222 232 0
-235 158 0
-235 207 0
235 -158 -207 0
236 -234 -235 0
236 234 235 0
-236 -234 235 0
-236 234 -235 0
237 236 0
-237 -236 0
238 -233 0
238 -237 0
-238 233 237 0
-240 182 0
-240 207 0
240 -182 -207 0
241 -239 -240 0
241 239 240 0
-241 -239 240 0
-241 239 -240 0
242 241 0
-242 -241 0
243 -238 0
243 -242 0
-243 238 242 0
-246 150 0
-246 245 0
246 -150 -245 0
-247 246 0
-247 234 0
247 -246 -234 0
-249 150 0
-249 248 0
249 -150 -248 0
-250 249 0
-250 239 0
250 -249 -239 0
251 -247 0
251 -250 0
-251 247 250 0
252 -244 -251 0
252 244 251 0
-252 -244 251 0
-252 244 -251 0
253 252 0
-253 -252 0
254 -243 0
254 -253 0
-254 243 253 0
-256 202 0
-256 171 0
256 -202 -171 0
257 -255 -256 0
257 255 256 0
-257 -255 256 0
-257 255 -256 0
258 257 0
-258 -257 0
259 -254 0
259 -258 0
-259 254 258 0
-262 150 0
-262 261 0
262 -150 -261 0
-263 262 0
-263 255 0
263 -262 -255 0
264 -260 -263 0
264 260 263 0
-264 -260 263 0
-264 260 -263 0
265 264 0
-265 -264 0
266 -259 0
266 -265 0
-266 259 265 0
-268 218 0
-268 171 0
268 -218 -171 0
269 -267 -268 0
269 267 268 0
-269 -267 268 0
-269 267 -268 0
270 269 0
-270 -269 0
271 -266 0
271 -270 0
-271 266 270 0
-274 150 0
-274 273 0
274 -150 -273 0
-275 274 0
-275 267 0
275 -274 -267 0
276 -272 -275 0
276 272 275 0
-276 -272 275 0
-276 272 -275 0
277 276 0
-277 -276 0
278 -271 0
278 -277 0
-278 271 277 0
-280 163 0
-280 30 0
280 -163 -30 0
281 -279 -280 0
281 279 280 0
-281 -279 280 0
-281 279 -280 0
282 281 0
-282 -281 0
283 -278 0
283 -282 0
-283 278 282 0
-285 218 0
-285 279 0
285 -218 -279 0
286 -284 -285 0
286 284 285 0
-286 -284 285 0
-286 284 -285 0
287 286 0
-287 -286 0
288 -283 0
288 -287 0
-288 283 287 0
-291 150 0
-291 290 0
291 -150 -290 0
-292 291 0
-292 284 0
292 -291 -284 0
293 -289 -292 0
293 289 292 0
-293 -289 292 0
-293 289 -292 0
294 293 0
-294 -293 0
295 -288 0
295 -294 0
-295 288 294 0
-297 158 0
-297 279 0
297 -158 -279 0
298 -296 -297 0
298 296 297 0
-298 -296 297 0
-298 296 -297 0
299 298 0
-299 -298 0
300 -295 0
300 -299 0
-300 295 299 0
-303 150 0
-303 302 0
303 -150 -302 0
-304 303 0
-304 296 0
304 -303 -296 0
305 -301 -304 0
305 301 304 0
-305 -301 304 0
-305 301 -304 0
306 305 0
-306 -305 0
307 -300 0
307 -306 0
-307 300 306 0
-309 182 0
-309 279 0
309 -182 -279 0
310 -308 -309 0
310 308 309 0
-310 -308 309 0
-310 308 -309 0
311 310 0
-311 -310 0
312 -307 0
312 -311 0
-312 307 311 0
-315 150 0
-315 314 0
315 -150 -314 0
-316 315 0
-316 308 0
316 -315 -308 0
317 -313 -316 0
317 313 316 0
-317 -313 316 0
-317 313 -316 0
318 317 0
-318 -317 0
319 -312 0
319 -318 0
-319 312 318 0
322 -320 -321 0
322 320 321 0
-322 -320 321 0
-322 320 -321 0
323 322 0
-323 -322 0
324 -319 0
324 -323 0
-324 319 323 0
-326 202 0
-326 279 0
326 -202 -279 0
327 -325 -326 0
327 325 326 0
-327 -325 326 0
-327 325 -326 0
328 327 0
-328 -327 0
329 -324 0
329 -328 0
-329 324 328 0
331 -330 -325 0
331 330 325 0
-331 -330 325 0
-331 330 -325 0
332 331 0
-332 -331 0
333 -329 0
333 -332 0
-333 329 332 0
335 -334 -126 0
335 334 126 0
-335 -334 126 0
-335 334 -126 0
336 335 0
-336 -335 0
337 -333 0
337 -336 0
-337 333 336 0
-339 202 0
-339 334 0
339 -202 -334 0
340 -338 -339 0
340 338 339 0
-340 -338 339 0
-340 338 -339 0
341 340 0
-341 -340 0
342 -337 0
342 -341 0
-342 337 341 0
-344 218 0
-344 334 0
344 -218 -334 0
345 -343 -344 0
345 343 344 0
-345 -343 344 0
-345 343 -344 0
346 345 0
-346 -345 0
347 -342 0
347 -346 0
-347 342 346 0
-349 158 0
-349 334 0
349 -158 -334 0
350 -348 -349 0
350 348 349 0
-350 -348 349 0
-350 348 -349 0
351 350 0
-351 -350 0
352 -347 0
352 -351 0
-352 347 351 0
354 -353 -182 0
354 353 182 0
-354 -353 182 0
-354 353 -182 0
355 354 0
-355 -354 0
356 -352 0
356 -355 0
-356 352 355 0
-360 150 0
-360 359 0
360 -150 -359 0
-361 360 0
-361 338 0
361 -360 -338 0
-363 150 0
-363 362 0
363 -150 -362 0
-364 363 0
-364 343 0
364 -363 -343 0
365 -361 0
365 -364 0
-365 361 364 0
-367 150 0
-367 366 0
367 -150 -366 0
-368 367 0
-368 348 0
368 -367 -348 0
-370 150 0
-370 369 0
370 -150 -369 0
-372 370 0
-372 371 0
372 -370 -371 0
373 -368 0
373 -372 0
-373 368 372 0
374 -365 0
374 -373 0
-374 365 373 0
375 -358 0
375 -374 0
-375 358 374 0
376 -357 0
376 -375 0
-376 357 375 0
-378 2 0
-378 377 0
378 -2 -377 0
-379 378 0
-379 255 0
379 -378 -255 0
-381 2 0
-381 380 0
381 -2 -380 0
-382 381 0
-382 267 0
382 -381 -267 0
383 -379 0
383 -382 0
-383 379 382 0
-385 2 0
-385 384 0
385 -2 -384 0
-386 385 0
-386 176 0
386 -385 -176 0
-388 2 0
-388 387 0
388 -2 -387 0
-389 388 0
-389 181 0
389 -388 -181 0
390 -386 0
390 -389 0
-390 386 389 0
391 -383 0
391 -390 0
-391 383 390 0
-393 2 0
-393 392 0
393 -2 -392 0
-394 393 0
-394 212 0
394 -393 -212 0
-396 2 0
-396 395 0
396 -2 -395 0
-397 396 0
-397 217 0
397 -396 -217 0
398 -394 0
398 -397 0
-398 394 397 0
-400 2 0
-400 399 0
400 -2 -399 0
-401 400 0
-401 234 0
401 -400 -234 0
-403 2 0
-403 402 0
403 -2 -402 0
-404 403 0
-404 239 0
404 -403 -239 0
405 -401 0
405 -404 0
-405 401 404 0
406 -398 0
406 -405 0
-406 398 405 0
407 -391 0
407 -406 0
-407 391 406 0
-409 2 0
-409 408 0
409 -2 -408 0
-410 409 0
-410 325 0
410 -409 -325 0
-412 411 0
-412 284 0
412 -411 -284 0
413 -410 0
413 -412 0
-413 410 412 0
-415 2 0
-415 414 0
415 -2 -414 0
-416 415 0
-416 296 0
416 -415 -296 0
-418 2 0
-418 417 0
418 -2 -417 0
-419 418 0
-419 308 0
419 -418 -308 0
420 -416 0
420 -419 0
-420 416 419 0
421 -413 0
421 -420 0
-421 413 420 0
-423 2 0
-423 422 0
423 -2 -422 0
-424 423 0
-424 338 0
424 -423 -338 0
-426 2 0
-426 425 0
426 -2 -425 0
-427 426 0
-427 343 0
427 -426 -343 0
428 -424 0
428 -427 0
-428 424 427 0
-430 2 0
-430 429 0
430 -2 -429 0
-431 430 0
-431 348 0
431 -430 -348 0
-433 2 0
-433 432 0
433 -2 -432 0
-434 433 0
-434 371 0
434 -433 -371 0
-435 431 0
-435 434 0
435 -431 -434 0
436 -428 0
436 -435 0
-436 428 435 0
437 -421 0
437 -436 0
-437 421 436 0
438 -407 0
438 -437 0
-438 407 437 0
439 -376 0
439 -438 0
-439 376 438 0
-440 1 0
-440 261 0
440 -1 -261 0
-441 440 0
-441 40 0
441 -440 -40 0
-442 1 0
-442 273 0
442 -1 -273 0
-443 442 0
-443 50 0
443 -442 -50 0
444 -441 0
444 -443 0
-444 441 443 0
-445 1 0
-445 188 0
445 -1 -188 0
-446 445 0
-446 60 0
446 -445 -60 0
-447 1 0
-447 191 0
447 -1 -191 0
-448 447 0
-448 70 0
448 -447 -70 0
449 -446 0
449 -448 0
-449 446 448 0
450 -444 0
450 -449 0
-450 444 449 0
-451 1 0
-451 224 0
451 -1 -224 0
-452 451 0
-452 80 0
452 -451 -80 0
-453 1 0
-453 227 0
453 -1 -227 0
-454 453 0
-454 85 0
454 -453 -85 0
455 -452 0
455 -454 0
-455 452 454 0
-456 1 0
-456 245 0
456 -1 -245 0
-457 456 0
-457 90 0
457 -456 -90 0
-458 1 0
-458 248 0
458 -1 -248 0
-459 458 0
-459 95 0
459 -458 -95 0
460 -457 0
460 -459 0
-460 457 459 0
461 -455 0
461 -460 0
-461 455 460 0
462 -450 0
462 -461 0
-462 450 461 0
-464 1 0
-464 463 0
464 -1 -463 0
-465 464 0
-465 105 0
465 -464 -105 0
-466 1 0
-466 290 0
466 -1 -290 0
-467 466 0
-467 110 0
467 -466 -110 0
468 -465 0
468 -467 0
-468 465 467 0
-469 1 0
-469 302 0
469 -1 -302 0
-470 469 0
-470 115 0
470 -469 -115 0
-471 1 0
-471 314 0
471 -1 -314 0
-472 471 0
-472 120 0
472 -471 -120 0
473 -470 0
473 -472 0
-473 470 472 0
474 -468 0
474 -473 0
-474 468 473 0
-475 1 0
-475 359 0
475 -1 -359 0
-476 475 0
-476 130 0
476 -475 -130 0
-477 1 0
-477 362 0
477 -1 -362 0
-478 477 0
-478 135 0
478 -477 -135 0
479 -476 0
479 -478 0
-479 476 478 0
-480 1 0
-480 366 0
480 -1 -366 0
-481 480 0
-481 140 0
481 -480 -140 0
-482 1 0
-482 369 0
482 -1 -369 0
-483 482 0
-483 145 0
483 -482 -145 0
484 -481 0
484 -483 0
-484 481 483 0
485 -479 0
485 -484 0
-485 479 484 0
486 -474 0
486 -485 0
-486 474 485 0
487 -462 0
487 -486 0
-487 462 486 0
-488 378 0
-488 40 0
488 -378 -40 0
-489 381 0
-489 50 0
489 -381 -50 0
490 -488 0
490 -489 0
-490 488 489 0
-491 385 0
-491 60 0
491 -385 -60 0
-492 388 0
-492 70 0
492 -388 -70 0
493 -491 0
493 -492 0
-493 491 492 0
494 -490 0
494 -493 0
-494 490 493 0
-495 393 0
-495 80 0
495 -393 -80 0
-496 396 0
-496 85 0
496 -396 -85 0
497 -495 0
497 -496 0
-497 495 496 0
-498 400 0
-498 90 0
498 -400 -90 0
-499 403 0
-499 95 0
499 -403 -95 0
500 -498 0
500 -499 0
-500 498 499 0
501 -497 0
501 -500 0
-501 497 500 0
502 -494 0
502 -501 0
-502 494 501 0
-503 409 0
-503 105 0
503 -409 -105 0
-505 2 0
-505 504 0
505 -2 -504 0
-506 505 0
-506 110 0
506 -505 -110 0
507 -503 0
507 -506 0
-507 503 506 0
-508 415 0
-508 115 0
508 -415 -115 0
-509 418 0
-509 120 0
509 -418 -120 0
510 -508 0
510 -509 0
-510 508 509 0
511 -507 0
511 -510 0
-511 507 510 0
-512 423 0
-512 130 0
512 -423 -130 0
-513 426 0
-513 135 0
513 -426 -135 0
514 -512 0
514 -513 0
-514 512 513 0
-515 430 0
-515 140 0
515 -430 -140 0
-516 433 0
-516 145 0
516 -433 -145 0
517 -515 0
517 -516 0
-517 515 516 0
518 -514 0
518 -517 0
-518 514 517 0
519 -511 0
519 -518 0
-519 511 518 0
520 -502 0
520 -519 0
-520 502 519 0
521 -487 0
521 -520 0
-521 487 520 0
522 -439 -521 0
522 439 521 0
-522 -439 521 0
-522 439 -521 0
523 -356 0
523 -522 0
-523 356 522 0
523 0
